Route #1: 37 29 83 182 160 184 1 165 88 44 127 172
Route #2: 106 119 49 26 117 11 122 82 140 124 187 27 53 189 154 7 155 17 79 116 60 175 170
Route #3: 46 92 145 115 144 94 50 178 69 179 62 42 100 8 56 130 21 68 81 142 159
Route #4: 73 112 80 150 30 39 36 22 77 38 2 6 35 109 89 104 85 138 28 58 43 10 102
Route #5: 31 135 121 55 59 96 90 3 15 76 40 32 61 180 153 84 18 185 70 141 98 148 167 136 183 25 64 188
Route #6: 131 118 99 45 149 139 72 133 156 129 108 103 34 128 163 4 110 168 120 13 171 66 63 57 19 105
Route #7: 16 166 157 173 132 134 161 74 107 33 162 20 65 114 9 91 113 111 23 164 158 75 93 51 67 14
Route #8: 169 78 147 12 86 125 137 151 174 48 54 126 181 41 152 87 186 146 177 123 52 71 101 47 5 176 24 97 143 95
Cost 16986.000000